SYSTEM = SINGLE
SIGMA = 0.1
EDIFF = 1E-4
KGAMMA = .TRUE.
PREC = Accurate
ISMEAR = 0
ISTART = 0
NELM = 1000
LREAL = Auto
LWAVE = .FALSE.
LCHARG = .FALSE.

ENCUT = 700
NCORE = 8
#IVDW = 11
